; solver scope 0
(declare-const tmp (_ BitVec 8))
(assert (let ((tmp_0 ((_ extract 0 0) tmp)))
        (let ((tmp_1 ((_ extract 1 1) tmp)))
        (let ((tmp_2 (bvand tmp_0 tmp_1)))
        (let ((tmp_3 (bvand tmp_1 tmp_2)))
        (let ((tmp_4 (bvxor tmp_3 #b1)))
        (let ((tmp_5 (bvxor tmp_2 #b1)))
        (let ((tmp_6 (bvxor tmp_1 #b1)))
        (let ((tmp_7 (bvand tmp_6 tmp_5)))
        (let ((tmp_8 (bvxor tmp_7 #b1)))
        (let ((tmp_9 (bvand tmp_8 tmp_4)))
        (let ((tmp_10 ((_ extract 2 2) tmp)))
        (let ((tmp_11 (bvand tmp_0 tmp_10)))
        (let ((tmp_12 (bvxor tmp_11 #b1)))
        (let ((tmp_13 (bvand tmp_5 tmp_12)))
        (let ((tmp_14 (bvxor tmp_13 #b1)))
        (let ((tmp_15 (bvand tmp_2 tmp_11)))
        (let ((tmp_16 (bvxor tmp_15 #b1)))
        (let ((tmp_17 (bvand tmp_16 tmp_14)))
        (let ((tmp_18 (bvand tmp_1 tmp_10)))
        (let ((tmp_19 (bvand tmp_10 tmp_18)))
        (let ((tmp_20 (bvxor tmp_19 #b1)))
        (let ((tmp_21 (bvxor tmp_18 #b1)))
        (let ((tmp_22 (bvxor tmp_10 #b1)))
        (let ((tmp_23 (bvand tmp_22 tmp_21)))
        (let ((tmp_24 (bvxor tmp_23 #b1)))
        (let ((tmp_25 (bvand tmp_24 tmp_20)))
        (let ((tmp_26 ((_ extract 3 3) tmp)))
        (let ((tmp_27 (bvand tmp_0 tmp_26)))
        (let ((tmp_28 (bvand tmp_27 tmp_25)))
        (let ((tmp_29 (bvxor tmp_28 #b1)))
        (let ((tmp_30 (bvxor tmp_25 #b1)))
        (let ((tmp_31 (bvxor tmp_27 #b1)))
        (let ((tmp_32 (bvand tmp_31 tmp_30)))
        (let ((tmp_33 (bvxor tmp_32 #b1)))
        (let ((tmp_34 (bvand tmp_33 tmp_29)))
        (let ((tmp_35 (bvxor tmp_34 #b1)))
        (let ((tmp_36 (bvand tmp_35 tmp_16)))
        (let ((tmp_37 (bvxor tmp_36 #b1)))
        (let ((tmp_38 (bvand tmp_34 tmp_15)))
        (let ((tmp_39 (bvxor tmp_38 #b1)))
        (let ((tmp_40 (bvand tmp_39 tmp_37)))
        (let ((tmp_41 (bvand tmp_1 tmp_26)))
        (let ((tmp_42 ((_ extract 4 4) tmp)))
        (let ((tmp_43 (bvand tmp_0 tmp_42)))
        (let ((tmp_44 (bvand tmp_43 tmp_41)))
        (let ((tmp_45 (bvxor tmp_44 #b1)))
        (let ((tmp_46 (bvxor tmp_41 #b1)))
        (let ((tmp_47 (bvxor tmp_43 #b1)))
        (let ((tmp_48 (bvand tmp_47 tmp_46)))
        (let ((tmp_49 (bvxor tmp_48 #b1)))
        (let ((tmp_50 (bvand tmp_49 tmp_45)))
        (let ((tmp_51 (bvand tmp_20 tmp_29)))
        (let ((tmp_52 (bvxor tmp_51 #b1)))
        (let ((tmp_53 (bvand tmp_52 tmp_50)))
        (let ((tmp_54 (bvxor tmp_53 #b1)))
        (let ((tmp_55 (bvxor tmp_50 #b1)))
        (let ((tmp_56 (bvand tmp_51 tmp_55)))
        (let ((tmp_57 (bvxor tmp_56 #b1)))
        (let ((tmp_58 (bvand tmp_57 tmp_54)))
        (let ((tmp_59 (bvxor tmp_58 #b1)))
        (let ((tmp_60 (bvand tmp_59 tmp_39)))
        (let ((tmp_61 (bvxor tmp_60 #b1)))
        (let ((tmp_62 (bvand tmp_58 tmp_38)))
        (let ((tmp_63 (bvxor tmp_62 #b1)))
        (let ((tmp_64 (bvand tmp_63 tmp_61)))
        (let ((tmp_65 (bvand tmp_54 tmp_63)))
        (let ((tmp_66 (bvxor tmp_65 #b1)))
        (let ((tmp_67 (bvand tmp_10 tmp_26)))
        (let ((tmp_68 (bvand tmp_26 tmp_67)))
        (let ((tmp_69 (bvxor tmp_68 #b1)))
        (let ((tmp_70 (bvxor tmp_67 #b1)))
        (let ((tmp_71 (bvxor tmp_26 #b1)))
        (let ((tmp_72 (bvand tmp_71 tmp_70)))
        (let ((tmp_73 (bvxor tmp_72 #b1)))
        (let ((tmp_74 (bvand tmp_73 tmp_69)))
        (let ((tmp_75 ((_ extract 5 5) tmp)))
        (let ((tmp_76 (bvand tmp_0 tmp_75)))
        (let ((tmp_77 (bvand tmp_76 tmp_74)))
        (let ((tmp_78 (bvxor tmp_77 #b1)))
        (let ((tmp_79 (bvxor tmp_74 #b1)))
        (let ((tmp_80 (bvxor tmp_76 #b1)))
        (let ((tmp_81 (bvand tmp_80 tmp_79)))
        (let ((tmp_82 (bvxor tmp_81 #b1)))
        (let ((tmp_83 (bvand tmp_82 tmp_78)))
        (let ((tmp_84 (bvand tmp_1 tmp_42)))
        (let ((tmp_85 (bvand tmp_84 tmp_83)))
        (let ((tmp_86 (bvxor tmp_85 #b1)))
        (let ((tmp_87 (bvxor tmp_83 #b1)))
        (let ((tmp_88 (bvxor tmp_84 #b1)))
        (let ((tmp_89 (bvand tmp_88 tmp_87)))
        (let ((tmp_90 (bvxor tmp_89 #b1)))
        (let ((tmp_91 (bvand tmp_90 tmp_86)))
        (let ((tmp_92 (bvand tmp_44 tmp_91)))
        (let ((tmp_93 (bvxor tmp_92 #b1)))
        (let ((tmp_94 (bvxor tmp_91 #b1)))
        (let ((tmp_95 (bvand tmp_45 tmp_94)))
        (let ((tmp_96 (bvxor tmp_95 #b1)))
        (let ((tmp_97 (bvand tmp_96 tmp_93)))
        (let ((tmp_98 (bvand tmp_97 tmp_66)))
        (let ((tmp_99 (bvxor tmp_98 #b1)))
        (let ((tmp_100 (bvxor tmp_97 #b1)))
        (let ((tmp_101 (bvand tmp_100 tmp_65)))
        (let ((tmp_102 (bvxor tmp_101 #b1)))
        (let ((tmp_103 (bvand tmp_102 tmp_99)))
        (let ((tmp_104 (bvand tmp_97 tmp_62)))
        (let ((tmp_105 (bvxor tmp_104 #b1)))
        (let ((tmp_106 (bvand tmp_93 tmp_105)))
        (let ((tmp_107 (bvand tmp_53 tmp_97)))
        (let ((tmp_108 (bvxor tmp_107 #b1)))
        (let ((tmp_109 (bvand tmp_108 tmp_106)))
        (let ((tmp_110 (bvxor tmp_109 #b1)))
        (let ((tmp_111 (bvand tmp_10 tmp_42)))
        (let ((tmp_112 (bvand tmp_1 tmp_75)))
        (let ((tmp_113 (bvand tmp_112 tmp_111)))
        (let ((tmp_114 (bvxor tmp_113 #b1)))
        (let ((tmp_115 (bvxor tmp_111 #b1)))
        (let ((tmp_116 (bvxor tmp_112 #b1)))
        (let ((tmp_117 (bvand tmp_116 tmp_115)))
        (let ((tmp_118 (bvxor tmp_117 #b1)))
        (let ((tmp_119 (bvand tmp_118 tmp_114)))
        (let ((tmp_120 ((_ extract 6 6) tmp)))
        (let ((tmp_121 (bvand tmp_0 tmp_120)))
        (let ((tmp_122 (bvand tmp_121 tmp_119)))
        (let ((tmp_123 (bvxor tmp_122 #b1)))
        (let ((tmp_124 (bvxor tmp_119 #b1)))
        (let ((tmp_125 (bvxor tmp_121 #b1)))
        (let ((tmp_126 (bvand tmp_125 tmp_124)))
        (let ((tmp_127 (bvxor tmp_126 #b1)))
        (let ((tmp_128 (bvand tmp_127 tmp_123)))
        (let ((tmp_129 (bvand tmp_69 tmp_78)))
        (let ((tmp_130 (bvxor tmp_129 #b1)))
        (let ((tmp_131 (bvand tmp_130 tmp_128)))
        (let ((tmp_132 (bvxor tmp_131 #b1)))
        (let ((tmp_133 (bvxor tmp_128 #b1)))
        (let ((tmp_134 (bvand tmp_129 tmp_133)))
        (let ((tmp_135 (bvxor tmp_134 #b1)))
        (let ((tmp_136 (bvand tmp_135 tmp_132)))
        (let ((tmp_137 (bvand tmp_85 tmp_136)))
        (let ((tmp_138 (bvxor tmp_137 #b1)))
        (let ((tmp_139 (bvxor tmp_136 #b1)))
        (let ((tmp_140 (bvand tmp_86 tmp_139)))
        (let ((tmp_141 (bvxor tmp_140 #b1)))
        (let ((tmp_142 (bvand tmp_141 tmp_138)))
        (let ((tmp_143 (bvand tmp_142 tmp_110)))
        (let ((tmp_144 (bvxor tmp_143 #b1)))
        (let ((tmp_145 (bvxor tmp_142 #b1)))
        (let ((tmp_146 (bvand tmp_145 tmp_109)))
        (let ((tmp_147 (bvxor tmp_146 #b1)))
        (let ((tmp_148 (bvand tmp_147 tmp_144)))
        (let ((tmp_149 (bvand tmp_97 tmp_142)))
        (let ((tmp_150 (bvand tmp_149 tmp_62)))
        (let ((tmp_151 (bvxor tmp_150 #b1)))
        (let ((tmp_152 (bvand tmp_53 tmp_149)))
        (let ((tmp_153 (bvxor tmp_152 #b1)))
        (let ((tmp_154 (bvand tmp_153 tmp_151)))
        (let ((tmp_155 (bvand tmp_92 tmp_142)))
        (let ((tmp_156 (bvxor tmp_155 #b1)))
        (let ((tmp_157 (bvand tmp_138 tmp_156)))
        (let ((tmp_158 (bvand tmp_157 tmp_154)))
        (let ((tmp_159 (bvand tmp_10 tmp_75)))
        (let ((tmp_160 (bvand tmp_1 tmp_120)))
        (let ((tmp_161 (bvand tmp_160 tmp_159)))
        (let ((tmp_162 (bvxor tmp_161 #b1)))
        (let ((tmp_163 (bvxor tmp_159 #b1)))
        (let ((tmp_164 (bvxor tmp_160 #b1)))
        (let ((tmp_165 (bvand tmp_164 tmp_163)))
        (let ((tmp_166 (bvxor tmp_165 #b1)))
        (let ((tmp_167 (bvand tmp_166 tmp_162)))
        (let ((tmp_168 (bvand tmp_26 tmp_42)))
        (let ((tmp_169 (bvand tmp_42 tmp_168)))
        (let ((tmp_170 (bvxor tmp_169 #b1)))
        (let ((tmp_171 (bvxor tmp_168 #b1)))
        (let ((tmp_172 (bvxor tmp_42 #b1)))
        (let ((tmp_173 (bvand tmp_172 tmp_171)))
        (let ((tmp_174 (bvxor tmp_173 #b1)))
        (let ((tmp_175 (bvand tmp_174 tmp_170)))
        (let ((tmp_176 ((_ extract 7 7) tmp)))
        (let ((tmp_177 (bvand tmp_0 tmp_176)))
        (let ((tmp_178 (bvand tmp_177 tmp_175)))
        (let ((tmp_179 (bvxor tmp_178 #b1)))
        (let ((tmp_180 (bvxor tmp_175 #b1)))
        (let ((tmp_181 (bvxor tmp_177 #b1)))
        (let ((tmp_182 (bvand tmp_181 tmp_180)))
        (let ((tmp_183 (bvxor tmp_182 #b1)))
        (let ((tmp_184 (bvand tmp_183 tmp_179)))
        (let ((tmp_185 (bvand tmp_184 tmp_167)))
        (let ((tmp_186 (bvxor tmp_185 #b1)))
        (let ((tmp_187 (bvxor tmp_167 #b1)))
        (let ((tmp_188 (bvxor tmp_184 #b1)))
        (let ((tmp_189 (bvand tmp_188 tmp_187)))
        (let ((tmp_190 (bvxor tmp_189 #b1)))
        (let ((tmp_191 (bvand tmp_190 tmp_186)))
        (let ((tmp_192 (bvand tmp_114 tmp_123)))
        (let ((tmp_193 (bvxor tmp_192 #b1)))
        (let ((tmp_194 (bvand tmp_193 tmp_191)))
        (let ((tmp_195 (bvxor tmp_194 #b1)))
        (let ((tmp_196 (bvxor tmp_191 #b1)))
        (let ((tmp_197 (bvand tmp_192 tmp_196)))
        (let ((tmp_198 (bvxor tmp_197 #b1)))
        (let ((tmp_199 (bvand tmp_198 tmp_195)))
        (let ((tmp_200 (bvand tmp_131 tmp_199)))
        (let ((tmp_201 (bvxor tmp_200 #b1)))
        (let ((tmp_202 (bvxor tmp_199 #b1)))
        (let ((tmp_203 (bvand tmp_132 tmp_202)))
        (let ((tmp_204 (bvxor tmp_203 #b1)))
        (let ((tmp_205 (bvand tmp_204 tmp_201)))
        (let ((tmp_206 (bvxor tmp_205 #b1)))
        (let ((tmp_207 (bvand tmp_206 tmp_158)))
        (let ((tmp_208 (bvxor tmp_207 #b1)))
        (let ((tmp_209 (bvxor tmp_158 #b1)))
        (let ((tmp_210 (bvand tmp_205 tmp_209)))
        (let ((tmp_211 (bvxor tmp_210 #b1)))
        (let ((tmp_212 (bvand tmp_211 tmp_208)))
        (let ((tmp_213 (bvand tmp_201 tmp_211)))
        (let ((tmp_214 (bvxor tmp_213 #b1)))
        (let ((tmp_215 (bvand tmp_26 tmp_75)))
        (let ((tmp_216 (bvand tmp_10 tmp_120)))
        (let ((tmp_217 (bvand tmp_216 tmp_215)))
        (let ((tmp_218 (bvxor tmp_217 #b1)))
        (let ((tmp_219 (bvxor tmp_215 #b1)))
        (let ((tmp_220 (bvxor tmp_216 #b1)))
        (let ((tmp_221 (bvand tmp_220 tmp_219)))
        (let ((tmp_222 (bvxor tmp_221 #b1)))
        (let ((tmp_223 (bvand tmp_222 tmp_218)))
        (let ((tmp_224 (bvand tmp_1 tmp_176)))
        (let ((tmp_225 (bvand tmp_224 tmp_223)))
        (let ((tmp_226 (bvxor tmp_225 #b1)))
        (let ((tmp_227 (bvxor tmp_223 #b1)))
        (let ((tmp_228 (bvxor tmp_224 #b1)))
        (let ((tmp_229 (bvand tmp_228 tmp_227)))
        (let ((tmp_230 (bvxor tmp_229 #b1)))
        (let ((tmp_231 (bvand tmp_230 tmp_226)))
        (let ((tmp_232 (bvand tmp_170 tmp_179)))
        (let ((tmp_233 (bvxor tmp_232 #b1)))
        (let ((tmp_234 (bvand tmp_233 tmp_231)))
        (let ((tmp_235 (bvxor tmp_234 #b1)))
        (let ((tmp_236 (bvxor tmp_231 #b1)))
        (let ((tmp_237 (bvand tmp_232 tmp_236)))
        (let ((tmp_238 (bvxor tmp_237 #b1)))
        (let ((tmp_239 (bvand tmp_238 tmp_235)))
        (let ((tmp_240 (bvand tmp_162 tmp_186)))
        (let ((tmp_241 (bvxor tmp_240 #b1)))
        (let ((tmp_242 (bvand tmp_241 tmp_239)))
        (let ((tmp_243 (bvxor tmp_242 #b1)))
        (let ((tmp_244 (bvxor tmp_239 #b1)))
        (let ((tmp_245 (bvand tmp_240 tmp_244)))
        (let ((tmp_246 (bvxor tmp_245 #b1)))
        (let ((tmp_247 (bvand tmp_246 tmp_243)))
        (let ((tmp_248 (bvand tmp_194 tmp_247)))
        (let ((tmp_249 (bvxor tmp_248 #b1)))
        (let ((tmp_250 (bvxor tmp_247 #b1)))
        (let ((tmp_251 (bvand tmp_195 tmp_250)))
        (let ((tmp_252 (bvxor tmp_251 #b1)))
        (let ((tmp_253 (bvand tmp_252 tmp_249)))
        (let ((tmp_254 (bvand tmp_253 tmp_214)))
        (let ((tmp_255 (bvxor tmp_254 #b1)))
        (let ((tmp_256 (bvxor tmp_253 #b1)))
        (let ((tmp_257 (bvand tmp_256 tmp_213)))
        (let ((tmp_258 (bvxor tmp_257 #b1)))
        (let ((tmp_259 (bvand tmp_258 tmp_255)))
        (let ((tmp_260 (bvand tmp_205 tmp_253)))
        (let ((tmp_261 (bvand tmp_260 tmp_209)))
        (let ((tmp_262 (bvxor tmp_261 #b1)))
        (let ((tmp_263 (bvand tmp_200 tmp_253)))
        (let ((tmp_264 (bvxor tmp_263 #b1)))
        (let ((tmp_265 (bvand tmp_249 tmp_264)))
        (let ((tmp_266 (bvand tmp_265 tmp_262)))
        (let ((tmp_267 (bvxor tmp_266 #b1)))
        (let ((tmp_268 (bvand tmp_42 tmp_75)))
        (let ((tmp_269 (bvand tmp_75 tmp_268)))
        (let ((tmp_270 (bvxor tmp_269 #b1)))
        (let ((tmp_271 (bvxor tmp_268 #b1)))
        (let ((tmp_272 (bvxor tmp_75 #b1)))
        (let ((tmp_273 (bvand tmp_272 tmp_271)))
        (let ((tmp_274 (bvxor tmp_273 #b1)))
        (let ((tmp_275 (bvand tmp_274 tmp_270)))
        (let ((tmp_276 (bvand tmp_10 tmp_176)))
        (let ((tmp_277 (bvand tmp_276 tmp_275)))
        (let ((tmp_278 (bvxor tmp_277 #b1)))
        (let ((tmp_279 (bvxor tmp_275 #b1)))
        (let ((tmp_280 (bvxor tmp_276 #b1)))
        (let ((tmp_281 (bvand tmp_280 tmp_279)))
        (let ((tmp_282 (bvxor tmp_281 #b1)))
        (let ((tmp_283 (bvand tmp_282 tmp_278)))
        (let ((tmp_284 (bvand tmp_26 tmp_120)))
        (let ((tmp_285 (bvand tmp_284 tmp_283)))
        (let ((tmp_286 (bvxor tmp_285 #b1)))
        (let ((tmp_287 (bvxor tmp_283 #b1)))
        (let ((tmp_288 (bvxor tmp_284 #b1)))
        (let ((tmp_289 (bvand tmp_288 tmp_287)))
        (let ((tmp_290 (bvxor tmp_289 #b1)))
        (let ((tmp_291 (bvand tmp_290 tmp_286)))
        (let ((tmp_292 (bvand tmp_218 tmp_226)))
        (let ((tmp_293 (bvxor tmp_292 #b1)))
        (let ((tmp_294 (bvand tmp_293 tmp_291)))
        (let ((tmp_295 (bvxor tmp_294 #b1)))
        (let ((tmp_296 (bvxor tmp_291 #b1)))
        (let ((tmp_297 (bvand tmp_292 tmp_296)))
        (let ((tmp_298 (bvxor tmp_297 #b1)))
        (let ((tmp_299 (bvand tmp_298 tmp_295)))
        (let ((tmp_300 (bvand tmp_235 tmp_243)))
        (let ((tmp_301 (bvxor tmp_300 #b1)))
        (let ((tmp_302 (bvand tmp_301 tmp_299)))
        (let ((tmp_303 (bvxor tmp_302 #b1)))
        (let ((tmp_304 (bvxor tmp_299 #b1)))
        (let ((tmp_305 (bvand tmp_300 tmp_304)))
        (let ((tmp_306 (bvxor tmp_305 #b1)))
        (let ((tmp_307 (bvand tmp_306 tmp_303)))
        (let ((tmp_308 (bvand tmp_307 tmp_267)))
        (let ((tmp_309 (bvxor tmp_308 #b1)))
        (let ((tmp_310 (bvxor tmp_307 #b1)))
        (let ((tmp_311 (bvand tmp_310 tmp_266)))
        (let ((tmp_312 (bvxor tmp_311 #b1)))
        (let ((tmp_313 (bvand tmp_312 tmp_309)))
        (let ((tmp_314 (bvand tmp_307 tmp_260)))
        (let ((tmp_315 (bvand tmp_209 tmp_314)))
        (let ((tmp_316 (bvxor tmp_315 #b1)))
        (let ((tmp_317 (bvand tmp_303 tmp_316)))
        (let ((tmp_318 (bvxor tmp_265 #b1)))
        (let ((tmp_319 (bvand tmp_307 tmp_318)))
        (let ((tmp_320 (bvxor tmp_319 #b1)))
        (let ((tmp_321 (bvand tmp_320 tmp_317)))
        (let ((tmp_322 (bvxor tmp_321 #b1)))
        (let ((tmp_323 (bvand tmp_42 tmp_120)))
        (let ((tmp_324 (bvand tmp_26 tmp_176)))
        (let ((tmp_325 (bvand tmp_324 tmp_323)))
        (let ((tmp_326 (bvxor tmp_325 #b1)))
        (let ((tmp_327 (bvxor tmp_323 #b1)))
        (let ((tmp_328 (bvxor tmp_324 #b1)))
        (let ((tmp_329 (bvand tmp_328 tmp_327)))
        (let ((tmp_330 (bvxor tmp_329 #b1)))
        (let ((tmp_331 (bvand tmp_330 tmp_326)))
        (let ((tmp_332 (bvand tmp_270 tmp_278)))
        (let ((tmp_333 (bvxor tmp_332 #b1)))
        (let ((tmp_334 (bvand tmp_333 tmp_331)))
        (let ((tmp_335 (bvxor tmp_334 #b1)))
        (let ((tmp_336 (bvxor tmp_331 #b1)))
        (let ((tmp_337 (bvand tmp_332 tmp_336)))
        (let ((tmp_338 (bvxor tmp_337 #b1)))
        (let ((tmp_339 (bvand tmp_338 tmp_335)))
        (let ((tmp_340 (bvand tmp_286 tmp_295)))
        (let ((tmp_341 (bvxor tmp_340 #b1)))
        (let ((tmp_342 (bvand tmp_341 tmp_339)))
        (let ((tmp_343 (bvxor tmp_342 #b1)))
        (let ((tmp_344 (bvxor tmp_339 #b1)))
        (let ((tmp_345 (bvand tmp_340 tmp_344)))
        (let ((tmp_346 (bvxor tmp_345 #b1)))
        (let ((tmp_347 (bvand tmp_346 tmp_343)))
        (let ((tmp_348 (bvand tmp_347 tmp_322)))
        (let ((tmp_349 (bvxor tmp_348 #b1)))
        (let ((tmp_350 (bvxor tmp_347 #b1)))
        (let ((tmp_351 (bvand tmp_350 tmp_321)))
        (let ((tmp_352 (bvxor tmp_351 #b1)))
        (let ((tmp_353 (bvand tmp_352 tmp_349)))
        (let ((tmp_354 (bvand tmp_307 tmp_347)))
        (let ((tmp_355 (bvand tmp_260 tmp_354)))
        (let ((tmp_356 (bvand tmp_355 tmp_209)))
        (let ((tmp_357 (bvxor tmp_356 #b1)))
        (let ((tmp_358 (bvand tmp_302 tmp_347)))
        (let ((tmp_359 (bvxor tmp_358 #b1)))
        (let ((tmp_360 (bvand tmp_343 tmp_359)))
        (let ((tmp_361 (bvand tmp_318 tmp_354)))
        (let ((tmp_362 (bvxor tmp_361 #b1)))
        (let ((tmp_363 (bvand tmp_362 tmp_360)))
        (let ((tmp_364 (bvand tmp_363 tmp_357)))
        (let ((tmp_365 (bvxor tmp_364 #b1)))
        (let ((tmp_366 (bvand tmp_75 tmp_120)))
        (let ((tmp_367 (bvand tmp_120 tmp_366)))
        (let ((tmp_368 (bvxor tmp_367 #b1)))
        (let ((tmp_369 (bvxor tmp_366 #b1)))
        (let ((tmp_370 (bvxor tmp_120 #b1)))
        (let ((tmp_371 (bvand tmp_370 tmp_369)))
        (let ((tmp_372 (bvxor tmp_371 #b1)))
        (let ((tmp_373 (bvand tmp_372 tmp_368)))
        (let ((tmp_374 (bvand tmp_42 tmp_176)))
        (let ((tmp_375 (bvand tmp_374 tmp_373)))
        (let ((tmp_376 (bvxor tmp_375 #b1)))
        (let ((tmp_377 (bvxor tmp_373 #b1)))
        (let ((tmp_378 (bvxor tmp_374 #b1)))
        (let ((tmp_379 (bvand tmp_378 tmp_377)))
        (let ((tmp_380 (bvxor tmp_379 #b1)))
        (let ((tmp_381 (bvand tmp_380 tmp_376)))
        (let ((tmp_382 (bvand tmp_326 tmp_335)))
        (let ((tmp_383 (bvxor tmp_382 #b1)))
        (let ((tmp_384 (bvand tmp_383 tmp_381)))
        (let ((tmp_385 (bvxor tmp_384 #b1)))
        (let ((tmp_386 (bvxor tmp_381 #b1)))
        (let ((tmp_387 (bvand tmp_382 tmp_386)))
        (let ((tmp_388 (bvxor tmp_387 #b1)))
        (let ((tmp_389 (bvand tmp_388 tmp_385)))
        (let ((tmp_390 (bvand tmp_389 tmp_365)))
        (let ((tmp_391 (bvxor tmp_390 #b1)))
        (let ((tmp_392 (bvxor tmp_389 #b1)))
        (let ((tmp_393 (bvand tmp_392 tmp_364)))
        (let ((tmp_394 (bvxor tmp_393 #b1)))
        (let ((tmp_395 (bvand tmp_394 tmp_391)))
        (let ((tmp_396 (bvand tmp_389 tmp_209)))
        (let ((tmp_397 (bvand tmp_355 tmp_396)))
        (let ((tmp_398 (bvxor tmp_397 #b1)))
        (let ((tmp_399 (bvand tmp_385 tmp_398)))
        (let ((tmp_400 (bvxor tmp_363 #b1)))
        (let ((tmp_401 (bvand tmp_389 tmp_400)))
        (let ((tmp_402 (bvxor tmp_401 #b1)))
        (let ((tmp_403 (bvand tmp_402 tmp_399)))
        (let ((tmp_404 (bvxor tmp_403 #b1)))
        (let ((tmp_405 (bvand tmp_368 tmp_376)))
        (let ((tmp_406 (bvxor tmp_405 #b1)))
        (let ((tmp_407 (bvand tmp_75 tmp_176)))
        (let ((tmp_408 (bvand tmp_407 tmp_406)))
        (let ((tmp_409 (bvxor tmp_408 #b1)))
        (let ((tmp_410 (bvxor tmp_407 #b1)))
        (let ((tmp_411 (bvand tmp_410 tmp_405)))
        (let ((tmp_412 (bvxor tmp_411 #b1)))
        (let ((tmp_413 (bvand tmp_412 tmp_409)))
        (let ((tmp_414 (bvand tmp_413 tmp_404)))
        (let ((tmp_415 (bvxor tmp_414 #b1)))
        (let ((tmp_416 (bvxor tmp_413 #b1)))
        (let ((tmp_417 (bvand tmp_416 tmp_403)))
        (let ((tmp_418 (bvxor tmp_417 #b1)))
        (let ((tmp_419 (bvand tmp_418 tmp_415)))
        (let ((tmp_420 (bvand tmp_389 tmp_413)))
        (let ((tmp_421 (bvand tmp_420 tmp_209)))
        (let ((tmp_422 (bvand tmp_355 tmp_421)))
        (let ((tmp_423 (bvxor tmp_422 #b1)))
        (let ((tmp_424 (bvand tmp_384 tmp_413)))
        (let ((tmp_425 (bvxor tmp_424 #b1)))
        (let ((tmp_426 (bvand tmp_409 tmp_425)))
        (let ((tmp_427 (bvand tmp_426 tmp_423)))
        (let ((tmp_428 (bvand tmp_420 tmp_400)))
        (let ((tmp_429 (bvxor tmp_428 #b1)))
        (let ((tmp_430 (bvand tmp_429 tmp_427)))
        (let ((tmp_431 (bvxor tmp_430 #b1)))
        (let ((tmp_432 (bvand tmp_120 tmp_176)))
        (let ((tmp_433 (bvand tmp_176 tmp_432)))
        (let ((tmp_434 (bvxor tmp_433 #b1)))
        (let ((tmp_435 (bvxor tmp_432 #b1)))
        (let ((tmp_436 (bvxor tmp_176 #b1)))
        (let ((tmp_437 (bvand tmp_436 tmp_435)))
        (let ((tmp_438 (bvxor tmp_437 #b1)))
        (let ((tmp_439 (bvand tmp_438 tmp_434)))
        (let ((tmp_440 (bvand tmp_439 tmp_431)))
        (let ((tmp_441 (bvxor tmp_440 #b1)))
        (let ((tmp_442 (bvxor tmp_439 #b1)))
        (let ((tmp_443 (bvand tmp_442 tmp_430)))
        (let ((tmp_444 (bvxor tmp_443 #b1)))
        (let ((tmp_445 (bvand tmp_444 tmp_441)))
        (let ((tmp_446 (bvxor tmp_426 #b1)))
        (let ((tmp_447 (bvand tmp_439 tmp_446)))
        (let ((tmp_448 (bvxor tmp_447 #b1)))
        (let ((tmp_449 (bvand tmp_435 tmp_448)))
        (let ((tmp_450 (bvand tmp_439 tmp_420)))
        (let ((tmp_451 (bvand tmp_450 tmp_209)))
        (let ((tmp_452 (bvand tmp_355 tmp_451)))
        (let ((tmp_453 (bvxor tmp_452 #b1)))
        (let ((tmp_454 (bvand tmp_453 tmp_449)))
        (let ((tmp_455 (bvand tmp_400 tmp_450)))
        (let ((tmp_456 (bvxor tmp_455 #b1)))
        (let ((tmp_457 (bvand tmp_456 tmp_454)))
        (let ((tmp_458 (bvxor tmp_457 #b1)))
        (let ((tmp_459 (concat tmp_458 tmp_445)))
        (let ((tmp_460 (concat tmp_459 tmp_419)))
        (let ((tmp_461 (concat tmp_460 tmp_395)))
        (let ((tmp_462 (concat tmp_461 tmp_353)))
        (let ((tmp_463 (concat tmp_462 tmp_313)))
        (let ((tmp_464 (concat tmp_463 tmp_259)))
        (let ((tmp_465 (concat tmp_464 tmp_212)))
        (let ((tmp_466 (concat tmp_465 tmp_148)))
        (let ((tmp_467 (concat tmp_466 tmp_103)))
        (let ((tmp_468 (concat tmp_467 tmp_64)))
        (let ((tmp_469 (concat tmp_468 tmp_40)))
        (let ((tmp_470 (concat tmp_469 tmp_17)))
        (let ((tmp_471 (concat tmp_470 tmp_9)))
        (let ((tmp_472 (concat tmp_471 #b0)))
        (let ((tmp_473 (concat tmp_472 tmp_0)))
        (let ((tmp_474 (concat #x00 tmp)))
        (let ((tmp_475 (bvmul tmp_474 tmp_474)))
        (let ((tmp_476 (distinct tmp_475 tmp_473)))
        tmp_476))))))))))))))))))))))))))))))))))))))))))))))))))))))))))))))))))))))))))))))))))))))))))))))))))))))))))))))))))))))))))))))))))))))))))))))))))))))))))))))))))))))))))))))))))))))))))))))))))))))))))))))))))))))))))))))))))))))))))))))))))))))))))))))))))))))))))))))))))))))))))))))))))))))))))))))))))))))))))))))))))))))))))))))))))))))))))))))))))))))))))))))))))))))))))))))))))))))))))))))))))))))))))))))))))))))))))))))))))))))))))))))))))))))))))))))))))))))))))))))
(check-sat)
